decision_x1=[0,7];
decision_x2=[0,7];
decision_x3=[0,7];
decision_x4=[0,7];
decision_x5=[0,7];
decision_x6=[0,7];
decision_x7=[0,7];
decision_x8=[0,7];
decision_x9=[0,7];
decision_x10=[0,7];
decision_x11=[0,7];
decision_x12=[0,7];
decision_x13=[0,7];
decision_x14=[0,7];
random_y1=[0,7];
random_y2=[0,7];
random_y3=[0,7];
random_y4=[0,7];
random_y5=[0,7];
random_y6=[0,7];
constraint_x2_x1=[
0,0,5.6|
0,1,8.7|
0,2,9.4|
0,3,0.31|
0,4,5.2|
0,5,4.7|
0,6,8.9|
0,7,6.4|
1,0,4.5|
1,1,8.3|
1,2,2.7|
1,3,1.6|
1,4,3.9|
1,5,1.4|
1,6,7.7|
1,7,3.1|
2,0,4.1|
2,1,7|
2,2,1.9|
2,3,0.041|
2,4,4.3|
2,5,0.2|
2,6,4|
2,7,3.7|
3,0,4.3|
3,1,2.5|
3,2,7|
3,3,2.2|
3,4,9.1|
3,5,3.4|
3,6,1|
3,7,8.4|
4,0,0.026|
4,1,4.8|
4,2,4.8|
4,3,9.9|
4,4,7.5|
4,5,1.6|
4,6,3.5|
4,7,3.7|
5,0,2.5|
5,1,7.5|
5,2,4.1|
5,3,0.37|
5,4,8.4|
5,5,7.2|
5,6,3.6|
5,7,7.1|
6,0,3.5|
6,1,0.55|
6,2,0.26|
6,3,3|
6,4,0.055|
6,5,6|
6,6,9.4|
6,7,0.44|
7,0,8.9|
7,1,1.5|
7,2,0.58|
7,3,4.7|
7,4,2.6|
7,5,9.3|
7,6,7|
7,7,7.2|
];
constraint_x3_x2=[
0,0,0.87|
0,1,5.1|
0,2,9.1|
0,3,8.1|
0,4,3.8|
0,5,6.6|
0,6,9.5|
0,7,5.3|
1,0,9.9|
1,1,1.9|
1,2,8.4|
1,3,4.2|
1,4,5.9|
1,5,3.5|
1,6,3.6|
1,7,0.49|
2,0,6.9|
2,1,6.6|
2,2,1.4|
2,3,8.6|
2,4,0.38|
2,5,2.9|
2,6,2.2|
2,7,4|
3,0,1.3|
3,1,5.6|
3,2,4.5|
3,3,2.9|
3,4,1.8|
3,5,9.1|
3,6,8.4|
3,7,4.7|
4,0,2.1|
4,1,5.5|
4,2,8|
4,3,3.7|
4,4,2.6|
4,5,1.3|
4,6,3.6|
4,7,4.9|
5,0,7.3|
5,1,2|
5,2,4.8|
5,3,4.6|
5,4,4.9|
5,5,2.1|
5,6,5.1|
5,7,8.4|
6,0,7.4|
6,1,5.7|
6,2,8.6|
6,3,3.8|
6,4,4.5|
6,5,7.9|
6,6,6|
6,7,2.2|
7,0,1.4|
7,1,9|
7,2,2.6|
7,3,5.8|
7,4,4|
7,5,6|
7,6,7.5|
7,7,3|
];
constraint_x4_x3=[
0,0,5.7|
0,1,4.9|
0,2,8.3|
0,3,1.2|
0,4,3.7|
0,5,1.2|
0,6,4.2|
0,7,8.7|
1,0,9.2|
1,1,2.8|
1,2,1.5|
1,3,2.4|
1,4,8.6|
1,5,4.8|
1,6,9.6|
1,7,1.2|
2,0,5|
2,1,6.4|
2,2,4.9|
2,3,8|
2,4,8.2|
2,5,8.6|
2,6,3.6|
2,7,3.3|
3,0,0.73|
3,1,7.2|
3,2,7.6|
3,3,3.8|
3,4,2.2|
3,5,8.5|
3,6,3.8|
3,7,1.3|
4,0,7.5|
4,1,2.2|
4,2,7.6|
4,3,5.5|
4,4,3.3|
4,5,0.14|
4,6,0.51|
4,7,9.1|
5,0,0.38|
5,1,9.6|
5,2,6.2|
5,3,8.4|
5,4,2.4|
5,5,3.1|
5,6,6.4|
5,7,6.6|
6,0,8.3|
6,1,4|
6,2,9.6|
6,3,2.8|
6,4,3.4|
6,5,0.64|
6,6,6.6|
6,7,2.7|
7,0,9|
7,1,7.8|
7,2,7.5|
7,3,7.2|
7,4,3.4|
7,5,8.3|
7,6,6.4|
7,7,3.1|
];
constraint_x5_x1=[
0,0,8.8|
0,1,0.76|
0,2,5.9|
0,3,0.92|
0,4,8.2|
0,5,6.1|
0,6,9.4|
0,7,5.6|
1,0,9|
1,1,1.4|
1,2,7|
1,3,3.4|
1,4,8|
1,5,5.3|
1,6,1.7|
1,7,3.8|
2,0,7|
2,1,7.6|
2,2,1.5|
2,3,4.4|
2,4,4|
2,5,9.3|
2,6,2.5|
2,7,2.9|
3,0,9.4|
3,1,5.6|
3,2,6.5|
3,3,0.48|
3,4,8.9|
3,5,9.3|
3,6,3.2|
3,7,1.4|
4,0,5.1|
4,1,2.3|
4,2,5.8|
4,3,6.7|
4,4,0.35|
4,5,1.1|
4,6,5.6|
4,7,5.1|
5,0,9|
5,1,5.2|
5,2,6.6|
5,3,4.5|
5,4,8.5|
5,5,8.1|
5,6,8.6|
5,7,1.9|
6,0,0.17|
6,1,8|
6,2,1|
6,3,8.8|
6,4,9.2|
6,5,9.9|
6,6,3.7|
6,7,7.8|
7,0,4|
7,1,5.9|
7,2,4.2|
7,3,5.3|
7,4,9.5|
7,5,2.5|
7,6,0.46|
7,7,7.8|
];
constraint_x6_x2=[
0,0,6.5|
0,1,9.5|
0,2,5.9|
0,3,6.4|
0,4,2.2|
0,5,9.3|
0,6,5.6|
0,7,4.7|
1,0,7.6|
1,1,5.6|
1,2,9|
1,3,1.6|
1,4,9|
1,5,6.2|
1,6,2.2|
1,7,7.7|
2,0,9.7|
2,1,9.8|
2,2,5.3|
2,3,8|
2,4,6.4|
2,5,1.4|
2,6,5.3|
2,7,2.8|
3,0,8.6|
3,1,8.7|
3,2,6.5|
3,3,6.6|
3,4,0.018|
3,5,1.5|
3,6,8.3|
3,7,10|
4,0,5.7|
4,1,9.6|
4,2,8.3|
4,3,8.4|
4,4,6.3|
4,5,2.6|
4,6,7.7|
4,7,8.9|
5,0,0.41|
5,1,2.7|
5,2,9.6|
5,3,9.8|
5,4,8.8|
5,5,9.4|
5,6,1.9|
5,7,3.9|
6,0,8|
6,1,1|
6,2,9.9|
6,3,2.7|
6,4,0.044|
6,5,2.8|
6,6,3.7|
6,7,6.7|
7,0,8.6|
7,1,3.9|
7,2,7|
7,3,1.8|
7,4,7.4|
7,5,5.5|
7,6,2.8|
7,7,1.4|
];
constraint_x6_x5=[
0,0,0.88|
0,1,6.7|
0,2,3.1|
0,3,7.1|
0,4,5.1|
0,5,3.6|
0,6,3.8|
0,7,5.4|
1,0,0.12|
1,1,9.9|
1,2,3.1|
1,3,7.3|
1,4,5.8|
1,5,9.6|
1,6,8|
1,7,7.2|
2,0,6.8|
2,1,7.2|
2,2,6.5|
2,3,4.6|
2,4,4.5|
2,5,1.5|
2,6,6.3|
2,7,8.4|
3,0,2.6|
3,1,4.1|
3,2,8.2|
3,3,7.6|
3,4,4.9|
3,5,2.8|
3,6,9.7|
3,7,6.6|
4,0,5.1|
4,1,4.6|
4,2,3.4|
4,3,4.8|
4,4,0.49|
4,5,2.2|
4,6,9.7|
4,7,8.8|
5,0,5.5|
5,1,5.7|
5,2,8.9|
5,3,2.4|
5,4,0.78|
5,5,6.4|
5,6,8.1|
5,7,3.4|
6,0,4.8|
6,1,6.4|
6,2,7.8|
6,3,8.2|
6,4,7.3|
6,5,5|
6,6,3.1|
6,7,9.7|
7,0,7.2|
7,1,6.4|
7,2,5.4|
7,3,6.4|
7,4,9.9|
7,5,3.5|
7,6,6.9|
7,7,8.2|
];
constraint_x7_x3=[
0,0,7.3|
0,1,6.4|
0,2,2.9|
0,3,5.3|
0,4,4.6|
0,5,8.1|
0,6,2.8|
0,7,3.5|
1,0,4.9|
1,1,7|
1,2,6.5|
1,3,9.5|
1,4,5.2|
1,5,6|
1,6,1.2|
1,7,9.4|
2,0,1.6|
2,1,0.4|
2,2,1.7|
2,3,0.26|
2,4,7.8|
2,5,5.1|
2,6,0.069|
2,7,5.3|
3,0,0.77|
3,1,5.5|
3,2,7.2|
3,3,6|
3,4,1.8|
3,5,2.6|
3,6,1.7|
3,7,6.3|
4,0,8.1|
4,1,0.76|
4,2,9|
4,3,2.9|
4,4,1.2|
4,5,4.1|
4,6,4.1|
4,7,8.3|
5,0,2.6|
5,1,5.5|
5,2,3.6|
5,3,4.6|
5,4,3.1|
5,5,6.1|
5,6,8.4|
5,7,1.7|
6,0,2.8|
6,1,7.9|
6,2,4.9|
6,3,0.21|
6,4,2|
6,5,2.1|
6,6,3.8|
6,7,1.3|
7,0,2.5|
7,1,2.9|
7,2,6.2|
7,3,6.7|
7,4,2.1|
7,5,0.5|
7,6,5.1|
7,7,6.8|
];
constraint_x7_x6=[
0,0,6|
0,1,8.5|
0,2,3|
0,3,2.5|
0,4,2.1|
0,5,2.4|
0,6,7.2|
0,7,2.2|
1,0,2.6|
1,1,8.7|
1,2,9|
1,3,4.4|
1,4,0.44|
1,5,2.1|
1,6,5|
1,7,2.5|
2,0,3.1|
2,1,0.86|
2,2,1.5|
2,3,6.4|
2,4,1.2|
2,5,0.87|
2,6,1.2|
2,7,1.1|
3,0,2.4|
3,1,1.7|
3,2,9.8|
3,3,4.7|
3,4,3.2|
3,5,3|
3,6,8.3|
3,7,0.7|
4,0,7.9|
4,1,2.7|
4,2,1.6|
4,3,9.4|
4,4,9.4|
4,5,3.2|
4,6,1|
4,7,5|
5,0,1|
5,1,5.8|
5,2,6.2|
5,3,2.6|
5,4,1.6|
5,5,9.2|
5,6,8.7|
5,7,10|
6,0,2.3|
6,1,8.6|
6,2,2.3|
6,3,0.7|
6,4,7.5|
6,5,1.7|
6,6,5.6|
6,7,1.2|
7,0,6.3|
7,1,6.2|
7,2,2.1|
7,3,6.7|
7,4,0.78|
7,5,8.8|
7,6,8.8|
7,7,1.2|
];
constraint_x8_x4=[
0,0,6|
0,1,8.1|
0,2,1.8|
0,3,4.1|
0,4,4.4|
0,5,7.2|
0,6,0.12|
0,7,2.2|
1,0,3.6|
1,1,9.8|
1,2,9.8|
1,3,6.8|
1,4,6.1|
1,5,6.6|
1,6,5.6|
1,7,6.2|
2,0,3.3|
2,1,7.5|
2,2,5.9|
2,3,6.7|
2,4,1.4|
2,5,4.7|
2,6,6.3|
2,7,0.18|
3,0,2.2|
3,1,8.8|
3,2,5.2|
3,3,0.1|
3,4,3.4|
3,5,7.8|
3,6,7.8|
3,7,7.2|
4,0,8.7|
4,1,5.8|
4,2,5.1|
4,3,4.9|
4,4,2.6|
4,5,7.8|
4,6,6.9|
4,7,5.7|
5,0,9.5|
5,1,6.8|
5,2,0.59|
5,3,9.6|
5,4,9.9|
5,5,8.9|
5,6,2|
5,7,7.7|
6,0,3.1|
6,1,4.4|
6,2,7.3|
6,3,8.1|
6,4,4.1|
6,5,7.2|
6,6,6.2|
6,7,7.1|
7,0,6.4|
7,1,1.8|
7,2,0.27|
7,3,0.11|
7,4,3.4|
7,5,3.4|
7,6,5.5|
7,7,0.37|
];
constraint_x8_x7=[
0,0,1.2|
0,1,3.7|
0,2,2.3|
0,3,5.3|
0,4,4.3|
0,5,2.8|
0,6,7.1|
0,7,9|
1,0,1.3|
1,1,1|
1,2,0.097|
1,3,5.3|
1,4,2.6|
1,5,1.6|
1,6,2.6|
1,7,9.6|
2,0,8|
2,1,8.2|
2,2,7.3|
2,3,9.9|
2,4,5.4|
2,5,6.2|
2,6,5|
2,7,3.3|
3,0,9.1|
3,1,2.1|
3,2,2.8|
3,3,7.6|
3,4,7.2|
3,5,6.7|
3,6,4.7|
3,7,7.6|
4,0,3.9|
4,1,1.6|
4,2,5.9|
4,3,5.5|
4,4,5.2|
4,5,3.6|
4,6,7.1|
4,7,2.5|
5,0,5.3|
5,1,5.6|
5,2,4.2|
5,3,3.5|
5,4,3.9|
5,5,9.8|
5,6,9.4|
5,7,9.3|
6,0,5.4|
6,1,7|
6,2,2.2|
6,3,5.7|
6,4,7.3|
6,5,5.1|
6,6,0.73|
6,7,5.2|
7,0,1.4|
7,1,2.7|
7,2,0.47|
7,3,4.4|
7,4,9.2|
7,5,9.8|
7,6,9.5|
7,7,3.6|
];
constraint_x9_x5=[
0,0,5.1|
0,1,1.7|
0,2,1.2|
0,3,9.8|
0,4,7.1|
0,5,5.8|
0,6,9.3|
0,7,2|
1,0,0.19|
1,1,6.7|
1,2,0.99|
1,3,4.7|
1,4,7|
1,5,9.1|
1,6,2.2|
1,7,6.1|
2,0,8.8|
2,1,8.4|
2,2,8.8|
2,3,6.4|
2,4,9.6|
2,5,4.1|
2,6,8.6|
2,7,7.2|
3,0,9.9|
3,1,2.6|
3,2,1.7|
3,3,3.7|
3,4,4.7|
3,5,1.4|
3,6,1.9|
3,7,4.1|
4,0,4.4|
4,1,4.4|
4,2,0.038|
4,3,3.6|
4,4,2|
4,5,1.3|
4,6,8.7|
4,7,4.3|
5,0,2.5|
5,1,8.2|
5,2,5.7|
5,3,7.3|
5,4,2.9|
5,5,8.8|
5,6,5.8|
5,7,7.5|
6,0,3.9|
6,1,6.1|
6,2,5.1|
6,3,2.3|
6,4,4.9|
6,5,7.7|
6,6,2.2|
6,7,6.6|
7,0,6|
7,1,9.4|
7,2,6.6|
7,3,3.9|
7,4,4.2|
7,5,7.9|
7,6,9.6|
7,7,5.6|
];
constraint_x10_x6=[
0,0,5|
0,1,4.3|
0,2,5.4|
0,3,4.9|
0,4,2.4|
0,5,1.8|
0,6,7.1|
0,7,3.5|
1,0,8.3|
1,1,7|
1,2,7.1|
1,3,9.2|
1,4,7.9|
1,5,7.8|
1,6,5|
1,7,3.6|
2,0,6.3|
2,1,3.3|
2,2,7.1|
2,3,0.77|
2,4,1.2|
2,5,2.1|
2,6,6.1|
2,7,6.6|
3,0,4|
3,1,1.1|
3,2,7.5|
3,3,8.9|
3,4,2.8|
3,5,5.5|
3,6,9.4|
3,7,2.7|
4,0,4|
4,1,5.4|
4,2,2.3|
4,3,1.2|
4,4,4.2|
4,5,1.2|
4,6,7.5|
4,7,2.5|
5,0,2.8|
5,1,2.2|
5,2,1.4|
5,3,3.7|
5,4,6.9|
5,5,1.2|
5,6,4.8|
5,7,8.5|
6,0,1.3|
6,1,2.4|
6,2,5.2|
6,3,6.4|
6,4,4.5|
6,5,7.4|
6,6,6.2|
6,7,0.23|
7,0,5|
7,1,6.9|
7,2,2.2|
7,3,9.2|
7,4,0.38|
7,5,8.9|
7,6,7|
7,7,6.7|
];
constraint_x10_x9=[
0,0,7.1|
0,1,6.4|
0,2,8.6|
0,3,6.3|
0,4,4.4|
0,5,9.2|
0,6,0.18|
0,7,9|
1,0,8|
1,1,4|
1,2,1.7|
1,3,2.7|
1,4,5.8|
1,5,5.6|
1,6,9.1|
1,7,3.8|
2,0,0.55|
2,1,5.2|
2,2,6.1|
2,3,9.4|
2,4,7.3|
2,5,4.5|
2,6,4.6|
2,7,9.3|
3,0,7.5|
3,1,5.2|
3,2,7.7|
3,3,1.1|
3,4,6.1|
3,5,6.5|
3,6,9.4|
3,7,6.4|
4,0,4.2|
4,1,9.5|
4,2,0.26|
4,3,3.8|
4,4,9.1|
4,5,4.3|
4,6,0.011|
4,7,6.1|
5,0,6.5|
5,1,2.5|
5,2,3.9|
5,3,7.1|
5,4,7.3|
5,5,3.1|
5,6,5.2|
5,7,2.6|
6,0,1.1|
6,1,0.41|
6,2,7.6|
6,3,1.2|
6,4,9.6|
6,5,5.7|
6,6,7.9|
6,7,1.8|
7,0,7.8|
7,1,3.7|
7,2,1.2|
7,3,8.3|
7,4,6.1|
7,5,7.1|
7,6,3.8|
7,7,7.6|
];
constraint_x11_x7=[
0,0,0.78|
0,1,5.7|
0,2,7|
0,3,4.7|
0,4,5.3|
0,5,8.4|
0,6,3.3|
0,7,6.4|
1,0,9.6|
1,1,6.6|
1,2,2.4|
1,3,5.2|
1,4,1.5|
1,5,2|
1,6,6.9|
1,7,6.9|
2,0,3.3|
2,1,5.8|
2,2,8|
2,3,6.1|
2,4,4.8|
2,5,7.7|
2,6,1.6|
2,7,9.4|
3,0,3.1|
3,1,8.8|
3,2,5|
3,3,5.1|
3,4,9.6|
3,5,4.6|
3,6,2.2|
3,7,9.7|
4,0,7.8|
4,1,6.5|
4,2,7.5|
4,3,3.5|
4,4,4|
4,5,7.3|
4,6,6.3|
4,7,0.92|
5,0,7|
5,1,6|
5,2,6.2|
5,3,0.014|
5,4,7.8|
5,5,5|
5,6,6.9|
5,7,5.7|
6,0,4.9|
6,1,2|
6,2,1.2|
6,3,4.2|
6,4,2.6|
6,5,6|
6,6,5.7|
6,7,3.4|
7,0,7.1|
7,1,5.3|
7,2,0.64|
7,3,3.6|
7,4,4.1|
7,5,3.5|
7,6,6.8|
7,7,5|
];
constraint_x11_x10=[
0,0,1.4|
0,1,0.8|
0,2,6.8|
0,3,9.7|
0,4,4.2|
0,5,3.1|
0,6,4.3|
0,7,5.1|
1,0,1.7|
1,1,0.82|
1,2,1.7|
1,3,8.3|
1,4,6.1|
1,5,3.4|
1,6,1.1|
1,7,1.3|
2,0,4.7|
2,1,7.2|
2,2,4.1|
2,3,9.5|
2,4,8.3|
2,5,4.2|
2,6,9.6|
2,7,5.9|
3,0,8.9|
3,1,6.9|
3,2,3.2|
3,3,0.82|
3,4,1.1|
3,5,9.8|
3,6,8|
3,7,7.7|
4,0,2.1|
4,1,2.3|
4,2,9.5|
4,3,0.85|
4,4,5.5|
4,5,6.7|
4,6,2.2|
4,7,0.85|
5,0,7|
5,1,1.7|
5,2,2.4|
5,3,2.4|
5,4,2|
5,5,4.6|
5,6,4|
5,7,6.3|
6,0,6.7|
6,1,7.2|
6,2,5|
6,3,1.6|
6,4,2.5|
6,5,5.8|
6,6,8.2|
6,7,5.8|
7,0,5|
7,1,3.7|
7,2,0.17|
7,3,7.2|
7,4,0.5|
7,5,8.8|
7,6,3.1|
7,7,1.6|
];
constraint_x12_x8=[
0,0,6.6|
0,1,8.2|
0,2,7.4|
0,3,5.8|
0,4,2.6|
0,5,4.4|
0,6,2.1|
0,7,9.4|
1,0,8.5|
1,1,2.4|
1,2,2.9|
1,3,3.8|
1,4,2.1|
1,5,3|
1,6,0.5|
1,7,1.3|
2,0,0.79|
2,1,2.1|
2,2,0.46|
2,3,2.8|
2,4,2.9|
2,5,9.2|
2,6,6.7|
2,7,7.5|
3,0,7.5|
3,1,3.9|
3,2,9|
3,3,4.7|
3,4,6.1|
3,5,6.5|
3,6,9.7|
3,7,5.7|
4,0,0.54|
4,1,1.9|
4,2,8.6|
4,3,9.7|
4,4,6.2|
4,5,0.86|
4,6,0.58|
4,7,0.11|
5,0,0.018|
5,1,5.6|
5,2,1.4|
5,3,2.9|
5,4,0.84|
5,5,6.1|
5,6,5.3|
5,7,1.1|
6,0,6.9|
6,1,1.4|
6,2,6.7|
6,3,7.7|
6,4,9.6|
6,5,0.17|
6,6,2.2|
6,7,9.8|
7,0,8.6|
7,1,9.4|
7,2,3.2|
7,3,3.7|
7,4,3.7|
7,5,3.8|
7,6,9.5|
7,7,0.86|
];
constraint_x12_x11=[
0,0,8.1|
0,1,2.6|
0,2,1.2|
0,3,6.5|
0,4,5.6|
0,5,5.4|
0,6,5.1|
0,7,7.5|
1,0,5|
1,1,4.8|
1,2,8|
1,3,0.52|
1,4,8.9|
1,5,7.3|
1,6,7.4|
1,7,4.4|
2,0,1.2|
2,1,1.9|
2,2,6.2|
2,3,9.3|
2,4,4.4|
2,5,7.3|
2,6,0.33|
2,7,9.3|
3,0,0.93|
3,1,6.2|
3,2,0.21|
3,3,2.1|
3,4,8.6|
3,5,9.2|
3,6,7.4|
3,7,9.9|
4,0,3.5|
4,1,6.1|
4,2,2.5|
4,3,6.2|
4,4,4|
4,5,7.6|
4,6,3.3|
4,7,8|
5,0,9.7|
5,1,6.5|
5,2,7.4|
5,3,4.7|
5,4,2.6|
5,5,0.6|
5,6,9.7|
5,7,3.4|
6,0,1.1|
6,1,1.1|
6,2,6.9|
6,3,0.26|
6,4,9.7|
6,5,3.4|
6,6,0.0012|
6,7,5.9|
7,0,5|
7,1,5.5|
7,2,4.3|
7,3,9.2|
7,4,9|
7,5,3.5|
7,6,2.7|
7,7,6.8|
];
constraint_x13_x9=[
0,0,5.1|
0,1,6.3|
0,2,2.8|
0,3,4.5|
0,4,9.6|
0,5,1|
0,6,8.5|
0,7,5.4|
1,0,8.4|
1,1,1.9|
1,2,0.94|
1,3,0.15|
1,4,5|
1,5,7.2|
1,6,5.2|
1,7,5.4|
2,0,2.5|
2,1,1.7|
2,2,5|
2,3,9|
2,4,4.5|
2,5,6.3|
2,6,7.7|
2,7,9.8|
3,0,7.1|
3,1,5.8|
3,2,9.5|
3,3,8.1|
3,4,3.8|
3,5,8.4|
3,6,1.7|
3,7,6.2|
4,0,2|
4,1,2.3|
4,2,4.6|
4,3,6.6|
4,4,8.5|
4,5,6.7|
4,6,9.5|
4,7,9.6|
5,0,3.5|
5,1,2|
5,2,9.3|
5,3,8.8|
5,4,3.4|
5,5,9.7|
5,6,0.92|
5,7,6.1|
6,0,5.1|
6,1,8.1|
6,2,2.7|
6,3,0.74|
6,4,8|
6,5,10|
6,6,0.051|
6,7,6.7|
7,0,4.7|
7,1,3.4|
7,2,6.4|
7,3,7|
7,4,0.17|
7,5,6.2|
7,6,7.8|
7,7,8.5|
];
constraint_x14_x10=[
0,0,6.6|
0,1,2.3|
0,2,6.8|
0,3,3.9|
0,4,5.6|
0,5,5|
0,6,4.8|
0,7,6.8|
1,0,5.2|
1,1,1.2|
1,2,4.4|
1,3,7.2|
1,4,6.6|
1,5,7.1|
1,6,7.5|
1,7,6.7|
2,0,9.8|
2,1,9.2|
2,2,8.6|
2,3,9.7|
2,4,7.1|
2,5,5.5|
2,6,3.8|
2,7,4.2|
3,0,8|
3,1,2.9|
3,2,9.7|
3,3,1.1|
3,4,3.3|
3,5,7|
3,6,5.9|
3,7,8.5|
4,0,9.8|
4,1,6.8|
4,2,2|
4,3,6.4|
4,4,9|
4,5,8.9|
4,6,2.3|
4,7,0.74|
5,0,5.3|
5,1,1.4|
5,2,9.5|
5,3,2.4|
5,4,6.8|
5,5,0.51|
5,6,4|
5,7,9.9|
6,0,3.5|
6,1,4.5|
6,2,1.1|
6,3,8.3|
6,4,1.9|
6,5,3.9|
6,6,4.8|
6,7,6.6|
7,0,7.9|
7,1,4.9|
7,2,6|
7,3,1|
7,4,6.1|
7,5,9.6|
7,6,3.3|
7,7,8.7|
];
constraint_x1_y1=[
0,0,2.9|
0,1,8.3|
0,2,10|
0,3,0.89|
0,4,3.6|
0,5,9.1|
0,6,6|
0,7,4.8|
1,0,8.9|
1,1,9|
1,2,2|
1,3,9.6|
1,4,9.4|
1,5,3.7|
1,6,7.8|
1,7,7.7|
2,0,5.5|
2,1,1.1|
2,2,7|
2,3,3.4|
2,4,4|
2,5,9.9|
2,6,0.17|
2,7,6|
3,0,4.4|
3,1,5.7|
3,2,8.1|
3,3,1.6|
3,4,8.6|
3,5,0.92|
3,6,7.4|
3,7,1.4|
4,0,1.5|
4,1,1.8|
4,2,3.4|
4,3,7.1|
4,4,2.7|
4,5,3.7|
4,6,6.9|
4,7,2.2|
5,0,3.4|
5,1,3.7|
5,2,3.6|
5,3,4.3|
5,4,6.9|
5,5,2.2|
5,6,0.29|
5,7,3|
6,0,4.9|
6,1,3.1|
6,2,7.5|
6,3,1.3|
6,4,8.1|
6,5,1.3|
6,6,6.7|
6,7,5.3|
7,0,5.5|
7,1,2.2|
7,2,1.7|
7,3,9.5|
7,4,9.4|
7,5,7.2|
7,6,1.8|
7,7,7.9|
];
constraint_x2_y2=[
0,0,0.84|
0,1,9.8|
0,2,1.4|
0,3,5.5|
0,4,7.7|
0,5,5.5|
0,6,7.2|
0,7,6.8|
1,0,0.71|
1,1,0.71|
1,2,7.7|
1,3,5.4|
1,4,1.8|
1,5,8|
1,6,8.4|
1,7,6.7|
2,0,2.8|
2,1,3.5|
2,2,8.4|
2,3,3.7|
2,4,7|
2,5,5.4|
2,6,7.5|
2,7,1.7|
3,0,2.6|
3,1,4.7|
3,2,5.7|
3,3,6.6|
3,4,0.23|
3,5,3.3|
3,6,8.4|
3,7,6.8|
4,0,6.5|
4,1,8.7|
4,2,4.4|
4,3,1.3|
4,4,2.6|
4,5,4.1|
4,6,9.3|
4,7,4.7|
5,0,7.2|
5,1,6.7|
5,2,0.34|
5,3,6|
5,4,3|
5,5,9.1|
5,6,4.9|
5,7,5.5|
6,0,8.7|
6,1,9.6|
6,2,8.3|
6,3,7.7|
6,4,5.9|
6,5,0.83|
6,6,3|
6,7,9|
7,0,9.4|
7,1,9.5|
7,2,7|
7,3,4.7|
7,4,4.4|
7,5,4|
7,6,5.5|
7,7,9.3|
];
constraint_x3_y3=[
0,0,2.9|
0,1,9.5|
0,2,6.5|
0,3,6|
0,4,5.5|
0,5,0.28|
0,6,0.46|
0,7,2|
1,0,8.8|
1,1,7|
1,2,6.8|
1,3,7.2|
1,4,8.4|
1,5,2.7|
1,6,1.5|
1,7,9.6|
2,0,4.8|
2,1,3.7|
2,2,9.3|
2,3,5.8|
2,4,6.7|
2,5,1.7|
2,6,6.5|
2,7,1.7|
3,0,7.5|
3,1,6.5|
3,2,4.3|
3,3,5|
3,4,8.3|
3,5,1.8|
3,6,6.7|
3,7,2|
4,0,6.2|
4,1,7.7|
4,2,5.7|
4,3,8.3|
4,4,9.3|
4,5,2.5|
4,6,0.73|
4,7,7.8|
5,0,5.6|
5,1,8.3|
5,2,6.2|
5,3,6.1|
5,4,3.5|
5,5,3.8|
5,6,6.6|
5,7,7.2|
6,0,8.9|
6,1,9.3|
6,2,2.1|
6,3,8.4|
6,4,5.9|
6,5,2.5|
6,6,0.26|
6,7,7.7|
7,0,0.95|
7,1,0.93|
7,2,6.9|
7,3,6.4|
7,4,6.2|
7,5,8.5|
7,6,9.5|
7,7,8.6|
];
constraint_x4_y4=[
0,0,5.2|
0,1,7.4|
0,2,1.5|
0,3,2.7|
0,4,9.5|
0,5,2.1|
0,6,7.5|
0,7,5.7|
1,0,4.4|
1,1,3.8|
1,2,8.9|
1,3,6.4|
1,4,8.7|
1,5,4.4|
1,6,2.1|
1,7,7.1|
2,0,4|
2,1,8.3|
2,2,1.2|
2,3,3.1|
2,4,5.1|
2,5,3.2|
2,6,4.3|
2,7,5.9|
3,0,0.18|
3,1,9.1|
3,2,4.7|
3,3,7.8|
3,4,3.5|
3,5,6.5|
3,6,2.5|
3,7,7.8|
4,0,8.2|
4,1,0.58|
4,2,7.7|
4,3,2.1|
4,4,1|
4,5,8.3|
4,6,1.7|
4,7,2.7|
5,0,3.6|
5,1,9.6|
5,2,6|
5,3,6.9|
5,4,7.2|
5,5,0.26|
5,6,4.2|
5,7,3.8|
6,0,7.5|
6,1,4.3|
6,2,3.5|
6,3,5.2|
6,4,5.6|
6,5,0.77|
6,6,1.4|
6,7,5.4|
7,0,3.3|
7,1,4.5|
7,2,4.5|
7,3,1.9|
7,4,0.0099|
7,5,9.6|
7,6,2|
7,7,8.1|
];
constraint_x5_y5=[
0,0,4.2|
0,1,3.6|
0,2,0.56|
0,3,0.71|
0,4,3.2|
0,5,2.3|
0,6,7.7|
0,7,3.1|
1,0,5.9|
1,1,5.4|
1,2,3.9|
1,3,0.27|
1,4,2.5|
1,5,2.3|
1,6,9.9|
1,7,7.9|
2,0,6.2|
2,1,6.9|
2,2,1.2|
2,3,3.4|
2,4,8.9|
2,5,4.5|
2,6,2.8|
2,7,8.8|
3,0,2|
3,1,0.25|
3,2,8.3|
3,3,5.2|
3,4,5.3|
3,5,6.8|
3,6,8.3|
3,7,3.2|
4,0,3.5|
4,1,2.2|
4,2,9|
4,3,5.6|
4,4,0.38|
4,5,3|
4,6,5.6|
4,7,0.27|
5,0,0.25|
5,1,2.3|
5,2,0.67|
5,3,3.4|
5,4,7.7|
5,5,9.6|
5,6,5.5|
5,7,0.32|
6,0,6.8|
6,1,2.4|
6,2,9.1|
6,3,7.5|
6,4,3.5|
6,5,1.7|
6,6,0.84|
6,7,2.7|
7,0,8.1|
7,1,3.6|
7,2,4|
7,3,7.8|
7,4,0.15|
7,5,3.1|
7,6,8.2|
7,7,7.7|
];
constraint_x6_y6=[
0,0,6.7|
0,1,8|
0,2,9|
0,3,4.2|
0,4,6.4|
0,5,7.4|
0,6,2.3|
0,7,2.3|
1,0,4.1|
1,1,3.2|
1,2,1.4|
1,3,6.1|
1,4,8.8|
1,5,0.035|
1,6,1.8|
1,7,5.3|
2,0,3.8|
2,1,0.39|
2,2,8.1|
2,3,10|
2,4,1|
2,5,4.4|
2,6,5.9|
2,7,8.2|
3,0,7.8|
3,1,0.15|
3,2,2|
3,3,9.3|
3,4,6|
3,5,7.7|
3,6,0.19|
3,7,5.6|
4,0,7.9|
4,1,4.2|
4,2,8.5|
4,3,9.6|
4,4,7.5|
4,5,0.4|
4,6,3.9|
4,7,1.2|
5,0,2.2|
5,1,2.6|
5,2,6.1|
5,3,5.7|
5,4,7.4|
5,5,8.5|
5,6,6|
5,7,4.1|
6,0,5.3|
6,1,4.1|
6,2,1.5|
6,3,3.1|
6,4,8.5|
6,5,9.8|
6,6,8.7|
6,7,1.8|
7,0,1.4|
7,1,5.1|
7,2,0.8|
7,3,3|
7,4,5.4|
7,5,6.3|
7,6,4.5|
7,7,3.5|
];
initial_distribution_y1=[0.093,0.14,0.09,0.36,0.037,0.13,0.016,0.13];
initial_distribution_y2=[0.038,0.086,0.12,0.11,0.23,0.089,0.24,0.088];
initial_distribution_y3=[0.12,0.27,0.16,0.006,0.13,0.12,0.09,0.12];
initial_distribution_y4=[0.032,0.22,0.074,0.11,0.22,0.056,0.16,0.13];
initial_distribution_y5=[0.24,0.06,0.053,0.07,0.12,0.087,0.13,0.24];
initial_distribution_y6=[0.13,0.013,0.21,0.18,0.015,0.14,0.19,0.12];
transition_y1=[
0.17,0.091,0.31,0.094,0.1,0.013,0.13,0.087|
0.14,0.18,0.21,0.045,0.17,0.19,0.066,0.0043|
0.086,0.2,0.16,0.19,0.053,0.16,0.11,0.033|
0.043,0.2,0.12,0.13,0.16,0.076,0.19,0.074|
0.097,0.2,0.12,0.13,0.053,0.15,0.11,0.14|
0.05,0.26,0.067,0.027,0.18,0.27,0.11,0.032|
0.082,0.19,0.2,0.28,0.049,0.028,0.059,0.12|
0.25,0.047,0.18,0.025,0.18,0.1,0.14,0.08|
];
transition_y2=[
0.14,0.12,0.2,0.09,0.067,0.21,0.098,0.085|
0.18,0.054,0.14,0.16,0.13,0.15,0.061,0.12|
0.11,0.089,0.19,0.15,0.056,0.11,0.21,0.084|
0.12,0.029,0.13,0.029,0.13,0.34,0.13,0.093|
0.11,0.21,0.16,0.026,0.11,0.24,0.11,0.025|
0.19,0.14,0.14,0.027,0.017,0.023,0.22,0.24|
0.055,0.29,0.13,0.037,0.12,0.24,0.11,0.026|
0.0091,0.088,0.26,0.11,0.24,0.083,0.21,0.0046|
];
transition_y3=[
0.089,0.051,0.2,0.17,0.044,0.15,0.19,0.11|
0.059,0.16,0.12,0.16,0.13,0.081,0.12,0.17|
0.14,0.074,0.01,0.21,0.1,0.0058,0.24,0.23|
0.017,0.13,0.013,0.21,0.15,0.09,0.26,0.13|
0.15,0.21,0.064,0.13,0.2,0.11,0.042,0.086|
0.015,0.31,0.049,0.092,0.0088,0.27,0.17,0.085|
0.24,0.22,0.099,0.25,0.13,0.029,0.015,0.025|
0.2,0.14,0.05,0.19,0.12,0.0061,0.16,0.13|
];
transition_y4=[
0.21,0.24,0.19,0.091,0.084,0.019,0.055,0.11|
0.16,0.15,0.061,0.055,0.16,0.19,0.057,0.16|
0.12,0.089,0.026,0.16,0.2,0.0084,0.14,0.26|
0.18,0.059,0.21,0.15,0.025,0.12,0.035,0.22|
0.21,0.1,0.035,0.11,0.21,0.097,0.094,0.14|
0.012,0.025,0.15,0.21,0.14,0.039,0.21,0.21|
0.065,0.0053,0.078,0.072,0.16,0.22,0.14,0.26|
0.13,0.12,0.076,0.12,0.2,0.1,0.059,0.18|
];
transition_y5=[
0.1,0.042,0.18,0.11,0.19,0.047,0.14,0.19|
0.084,0.19,0.13,0.27,0.0054,0.09,0.033,0.19|
0.076,0.16,0.091,0.15,0.19,0.2,0.095,0.046|
0.092,0.14,0.091,0.1,0.19,0.18,0.068,0.14|
0.17,0.071,0.11,0.18,0.07,0.093,0.1,0.2|
0.24,0.14,0.043,0.049,0.17,0.075,0.099,0.19|
0.13,0.19,0.19,0.048,0.026,0.11,0.088,0.21|
0.079,0.15,0.14,0.089,0.057,0.15,0.17,0.17|
];
transition_y6=[
0.06,0.1,0.12,0.046,0.18,0.16,0.16,0.18|
0.1,0.09,0.14,0.24,0.09,0.19,0.13,0.024|
0.021,0.027,0.26,0.087,0.044,0.12,0.15,0.29|
0.015,0.074,0.12,0.27,0.08,0.18,0.04,0.22|
0.14,0.081,0.11,0.15,0.15,0.14,0.17,0.047|
0.14,0.11,0.17,0.17,0.16,0.062,0.048,0.13|
0.087,0.18,0.12,0.022,0.21,0.054,0.18,0.14|
0.011,0.14,0.11,0.0048,0.24,0.24,0.15,0.099|
];
